50
12686

80 492
364 780
516 228
813 257
978 687
907 311
244 560
505 696
185 742
231 324
767 209
570 696
97 666
525 335
664 658
574 6
760 761
406 549
160 83
794 738
533 17
309 44
801 125
467 886
592 651
37 877
471 519
949 733
999 293
551 288
396 175
114 350
262 894
89 936
972 230
152 831
474 459
375 985
564 136
214 511
375 558
415 758
988 943
132 515
226 85
186 631
823 550
417 588
102 960
134 574
